102
100 50 
100 50 
99 51 
98 52 
98 52 
98 52 
97 52 
97 52 
97 52 
96 54 
95 55 
95 55 
94 56 
94 54 
94 54 
93 57 
92 58 
92 58 
92 58 
92 58 
92 58 
92 57 
92 57 
91 59 
91 59 
91 59 
91 59 
91 59 
90 60 
90 60 
90 60 
90 60 
90 57 
90 57 
89 61 
89 61 
89 54 
89 54 
88 62 
88 62 
88 62 
88 62 
88 62 
87 63 
87 62 
86 64 
86 64 
86 64 
85 65 
85 65 
84 66 
83 67 
83 67 
83 67 
82 68 
82 68 
82 66 
82 66 
82 66 
81 69 
81 69 
81 69 
80 70 
80 70 
79 69 
79 66 
79 66 
77 73 
77 73 
76 74 
76 74 
76 74 
76 74 
76 74 
75 75 
75 75 
74 74 
72 72 
72 65 
65 65 20 
52 51 46 
51 50 49 
49 49 48 
48 46 46 
46 45 45 
45 45 45 
45 44 44 
44 43 43 20 
42 42 41 25 
40 40 40 30 
40 40 40 30 
40 39 39 32 
39 39 39 33 
38 38 38 36 
37 37 37 37 
36 35 34 34 
34 34 33 33 
33 32 31 31 23 
29 29 29 28 28 
27 27 26 26 26 
23 22 22 22 22 21 
21 21 21 21 20 20 20 
